Nuwan Dewapriya (2021/05/15)
1.0
       40.00000000       0.0000000000         0.0000000000
       0.0000000000       25.00000000         0.0000000000
       0.0000000000        0.0000000000        25.00000000
C   H   
12  26 
Selective Dynamics
Cartesian
2.9744	7.7064	5.8201	F	F	F
4.6863	7.4980	5.8985	T	T	T
9.4645	7.5066	6.5410	T	T	T
6.3273	7.7443	6.2917	T	T	T
11.0275	6.8611	6.2855	T	T	T
7.8862	7.0882	6.0299	T	T	T
12.5975	7.2850	6.8085	T	T	T
14.1533	6.6317	6.5349	T	T	T
17.2900	6.4136	6.7862	T	T	T
15.7251	7.0539	7.0581	T	T	T
18.9340	6.6492	7.1799	T	T	T
20.6466	6.4451	7.2549	F	F	F
2.5681	7.6468	6.8286	T	T	T
2.5543	6.9167	5.1989	T	T	T
2.7610	8.6813	5.3837	T	T	T
4.4786	7.7251	4.8368	T	T	T
4.2696	6.6004	6.3964	T	T	T
6.4885	8.7637	5.9125	T	T	T
9.5666	8.5333	6.1617	T	T	T
7.9782	7.1091	4.9383	T	T	T
11.1234	6.8910	5.1920	T	T	T
7.7711	6.0670	6.4126	T	T	T
10.9249	5.8327	6.6540	T	T	T
12.7015	8.3132	6.4437	T	T	T
15.8290	8.0886	6.7062	T	T	T
14.2423	6.6627	5.4447	T	T	T
17.3162	6.4839	5.6890	T	T	T
14.0453	5.6060	6.9030	T	T	T
19.3408	7.5524	6.7017	T	T	T
21.0550	6.5437	6.2505	T	T	T
6.2865	7.6915	7.3898	T	T	T
9.3803	7.4820	7.6352	T	T	T
12.5096	7.2529	7.9015	T	T	T
15.6376	7.0079	8.1505	T	T	T
17.1365	5.3878	7.1477	T	T	T
21.0588	7.2154	7.9051	T	T	T
19.1420	6.3748	8.2325	T	T	T
20.8667	5.4573	7.6573	T	T	T